
units metal
boundary p p p

atom_style atomic

read_data    data.rot

pair_style airebo 3.0 1 0
pair_coeff * * CH.airebo C

reset_timestep 0 
thermo 1
min_style cg 
minimize 1e-15 1e-15 300 300 

dump    1 all xyz 100 dump.xyz
dump    2 all atom 100 dump.min

minimize 1e-15 1e-15 1 1 
